c A SAT instance generated from a 3-CNF formula that had 60 clauses and 10 variables
p cnf 10 60
-6 5 -10 0
-5 -6 -8 0
7 8 5 0
-1 -6 -5 0
-1 -7 -10 0
-6 -4 -8 0
9 5 -4 0
10 -7 -2 0
8 5 -4 0
1 -10 6 0
10 8 2 0
-5 -7 -10 0
-3 10 7 0
-10 7 5 0
-6 -10 8 0
5 1 9 0
-3 8 -1 0
8 -4 1 0
3 1 9 0
4 -9 7 0
5 7 2 0
-6 -4 7 0
9 -4 -3 0
5 -3 -2 0
6 -8 7 0
-3 -6 -9 0
-4 -6 -5 0
-1 -6 -10 0
-4 -6 -2 0
-3 -8 -7 0
4 7 -2 0
-8 10 9 0
-6 -4 -8 0
-1 10 5 0
5 -1 7 0
2 -1 -8 0
-7 4 -9 0
4 3 -7 0
4 -9 7 0
-2 -1 -6 0
-8 3 -9 0
-2 -10 3 0
-10 -4 -8 0
10 1 6 0
1 6 -10 0
5 -1 4 0
-9 6 -3 0
-3 -7 6 0
-5 -7 3 0
-5 2 -4 0
-2 3 -6 0
10 9 1 0
-5 -7 8 0
-4 9 -10 0
-8 -5 -10 0
-9 1 -10 0
-8 3 -10 0
-8 -4 -5 0
-7 -6 -4 0
-7 8 -2 0
%
0

42 96 84 35 88 7 24 93 7 27
